Data path: /scratch/opt/lxu/CFLG/benchmarks/tree_A
Instance: treeA.200.20
Result path: /scratch/opt/lxu/CFLG/results/tree_A
Solver: Gurobi
Time limit: 7200
Formulation: LEFPA
Cover: Large
julia --project=. src/main.jl /scratch/opt/lxu/CFLG/benchmarks/tree_A treeA.200.20 /scratch/opt/lxu/CFLG/results/tree_A Gurobi 7200 LEFPA Large
The latest version of Julia in the `release` channel is 1.11.5+0.x64.linux.gnu. You currently have `1.11.4+0.x64.linux.gnu` installed. Run:

  juliaup update

in your terminal shell to install Julia 1.11.5+0.x64.linux.gnu and update the `release` channel to that version.
/scratch/opt/lxu/CFLG/benchmarks/tree_A Gurobi 7200.0 /scratch/opt/lxu/CFLG/results/tree_A treeA.200.20 LEFPA Large
/scratch/opt/lxu/CFLG/benchmarks/tree_A/treeA.200.20

 read graph
data loaded

problem_graph/original graph: node: 200/200 edge: 219/219 dlt: 2.9777873923028 break_avg_len: 1.4888936961514 break_max_len: 1.9992277058975603Vbar/V, Ebar/E(104, 200, 123, 219)
Set parameter TokenServer to value "solice01.zib.de"
Set parameter Threads to value 1
Set parameter OutputFlag to value 1
Gurobi Optimizer version 12.0.1 build v12.0.1rc0 (linux64 - "Debian GNU/Linux 12 (bookworm)")

CPU model: Intel(R) Xeon(R) Gold 5122 CPU @ 3.60GHz, instruction set [SSE2|AVX|AVX2|AVX512]
Thread count: 8 physical cores, 16 logical processors, using up to 1 threads

Non-default parameters:
Threads  1

Optimize a model with 313 rows, 498 columns and 830 nonzeros
Model fingerprint: 0xb6210821
Coefficient statistics:
  Matrix range     [1e+00, 1e+00]
  Objective range  [1e+00, 1e+00]
  Bounds range     [1e+00, 1e+00]
  RHS range        [1e+00, 1e+00]
Presolve removed 313 rows and 498 columns
Presolve time: 0.00s
Presolve: All rows and columns removed
Iteration    Objective       Primal Inf.    Dual Inf.      Time
       0    4.3000000e+01   0.000000e+00   0.000000e+00      0s

Solved in 0 iterations and 0.00 seconds (0.00 work units)
Optimal objective  4.300000000e+01

User-callback calls 35, time in user-callback 0.00 sec
elapsed CPU time: 1.21605 seconds
Set parameter TokenServer to value "solice01.zib.de"
Set parameter Threads to value 1
Set parameter OutputFlag to value 1
Set parameter MIPGap to value 0.0001
Set parameter MIPGapAbs to value 0.999998
Set parameter TimeLimit to value 7198.78395

 more cuts: false 2.9777873923028 false
is_attach:trueformulation:LEFPA0 166 0

 model loaded

Gurobi Optimizer version 12.0.1 build v12.0.1rc0 (linux64 - "Debian GNU/Linux 12 (bookworm)")

CPU model: Intel(R) Xeon(R) Gold 5122 CPU @ 3.60GHz, instruction set [SSE2|AVX|AVX2|AVX512]
Thread count: 8 physical cores, 16 logical processors, using up to 1 threads

Non-default parameters:
TimeLimit  7198.78395
MIPGapAbs  0.999998
Threads  1

Optimize a model with 4813 rows, 2815 columns and 13285 nonzeros
Model fingerprint: 0x071002e0
Variable types: 479 continuous, 2336 integer (2336 binary)
Coefficient statistics:
  Matrix range     [1e-06, 6e+00]
  Objective range  [1e+00, 1e+00]
  Bounds range     [5e-03, 3e+00]
  RHS range        [1e-06, 6e+00]
Presolve removed 2786 rows and 1478 columns
Presolve time: 0.07s
Presolved: 2027 rows, 1337 columns, 8598 nonzeros
Variable types: 222 continuous, 1115 integer (1115 binary)
Found heuristic solution: objective 150.0000000
Found heuristic solution: objective 148.0000000
Found heuristic solution: objective 100.0000000

Root relaxation: objective 4.304697e+01, 1203 iterations, 0.01 seconds (0.01 work units)

    Nodes    |    Current Node    |     Objective Bounds      |     Work
 Expl Unexpl |  Obj  Depth IntInf | Incumbent    BestBd   Gap | It/Node Time

     0     0   43.04697    0  297  100.00000   43.04697  57.0%     -    0s
H    0     0                      96.0000000   43.04697  55.2%     -    0s
H    0     0                      71.0000000   43.04697  39.4%     -    0s
     0     0   47.29537    0  347   71.00000   47.29537  33.4%     -    0s
H    0     0                      67.0000000   47.38269  29.3%     -    0s
H    0     0                      66.0000000   47.38269  28.2%     -    0s
     0     0   47.38269    0  349   66.00000   47.38269  28.2%     -    0s
     0     0   49.94249    0  297   66.00000   49.94249  24.3%     -    0s
H    0     0                      65.0000000   50.03586  23.0%     -    0s
H    0     0                      64.0000000   50.03586  21.8%     -    0s
     0     0   50.03586    0  315   64.00000   50.03586  21.8%     -    0s
     0     0   50.03915    0  313   64.00000   50.03915  21.8%     -    0s
     0     0   50.03915    0  313   64.00000   50.03915  21.8%     -    0s
     0     0   51.30661    0  326   64.00000   51.30661  19.8%     -    0s
H    0     0                      63.0000000   51.30661  18.6%     -    0s
     0     0   51.48312    0  314   63.00000   51.48312  18.3%     -    0s
     0     0   51.48346    0  329   63.00000   51.48346  18.3%     -    0s
     0     0   52.10690    0  224   63.00000   52.10690  17.3%     -    0s
     0     0   52.11158    0  228   63.00000   52.11158  17.3%     -    0s
     0     0   52.11158    0  239   63.00000   52.11158  17.3%     -    0s
     0     0   52.14448    0  196   63.00000   52.14448  17.2%     -    0s
H    0     0                      62.0000000   52.14448  15.9%     -    0s
H    0     0                      61.0000000   52.14448  14.5%     -    0s
     0     0   52.16191    0  222   61.00000   52.16191  14.5%     -    0s
     0     0   52.16667    0  221   61.00000   52.16667  14.5%     -    0s
     0     0   52.16667    0  194   61.00000   52.16667  14.5%     -    0s
     0     0   52.16667    0  197   61.00000   52.16667  14.5%     -    0s
     0     0   52.16667    0  175   61.00000   52.16667  14.5%     -    0s
H    0     0                      58.0000000   52.16667  10.1%     -    0s
     0     0   52.19774    0  195   58.00000   52.19774  10.0%     -    0s
     0     0   52.19882    0  206   58.00000   52.19882  10.0%     -    0s
     0     0   52.19909    0  124   58.00000   52.19909  10.0%     -    0s
     0     0   52.20066    0  154   58.00000   52.20066  10.0%     -    0s
     0     0   52.20066    0  149   58.00000   52.20066  10.0%     -    0s
     0     0   52.20302    0  150   58.00000   52.20302  10.0%     -    0s
     0     0   52.20302    0  141   58.00000   52.20302  10.0%     -    0s
     0     0   52.20302    0  141   58.00000   52.20302  10.0%     -    0s
H    0     0                      57.0000000   52.23506  8.36%     -    0s
     0     2   52.23506    0  135   57.00000   52.23506  8.36%     -    0s
H   52    50                      56.0000000   52.23506  6.72%  34.5    0s
H  406   214                      55.0000000   52.83333  3.94%  20.1    1s
H  541    95                      54.0000000   52.83333  2.16%  20.6    1s
  4012    41   53.00000   15   43   54.00000   53.00000  1.85%  22.0    5s

Cutting planes:
  Learned: 9
  Gomory: 13
  Cover: 112
  Implied bound: 98
  Clique: 4
  MIR: 182
  StrongCG: 10
  GUB cover: 29
  Inf proof: 4
  Zero half: 16
  Mod-K: 2
  RLT: 84
  Relax-and-lift: 22
  BQP: 12
  PSD: 6

Explored 5064 nodes (122049 simplex iterations) in 6.17 seconds (4.09 work units)
Thread count was 1 (of 16 available processors)

Solution count 10: 54 55 56 ... 65

Optimal solution found (tolerance 1.00e-04)
Best objective 5.400000000000e+01, best bound 5.400000000000e+01, gap 0.0000%

User-callback calls 13730, time in user-callback 0.01 sec

 sepatime0 0 0
54.0Stat(MathOptInterface.OPTIMAL, 54.0, 54.0, 0.0, 0.0, 1.21605, 6.165395975112915, 5064, Main.CFLG.LEFPA, "", #undef)
ERROR: LoadError: SystemError: opening file "/scratch/opt/lxu/CFLG/results/tree_A/treeA.200.20.LEFPA.Large": No such file or directory
Stacktrace:
 [1] systemerror(p::String, errno::Int32; extrainfo::Nothing)
   @ Base ./error.jl:176
 [2] systemerror
   @ ./error.jl:175 [inlined]
 [3] open(fname::String; lock::Bool, read::Nothing, write::Nothing, create::Nothing, truncate::Bool, append::Nothing)
   @ Base ./iostream.jl:295
 [4] open
   @ ./iostream.jl:277 [inlined]
 [5] open(fname::String, mode::String; lock::Bool)
   @ Base ./iostream.jl:358
 [6] open
   @ ./iostream.jl:357 [inlined]
 [7] main(args::Vector{String})
   @ Main /scratch/opt/lxu/CFLG/src/main.jl:51
 [8] top-level scope
   @ /scratch/opt/lxu/CFLG/src/main.jl:57
in expression starting at /scratch/opt/lxu/CFLG/src/main.jl:57
srun: error: htc-cmp462: task 0: Exited with exit code 1
